data/MCDM/NO_CORR/GEN_FROM_60/19_ITEMS_1000_GEN/K5019W16.KNP.mps
NAME          BLANK   
ROWS
 N  OBJROW
 L  R0000000
COLUMNS
    C0000000  OBJROW     -859.         R0000000  498.        
    C0000001  OBJROW     -312.         R0000000  823.        
    C0000002  OBJROW     -435.         R0000000  403.        
    C0000003  OBJROW     -339.         R0000000  9.          
    C0000004  OBJROW     -91.          R0000000  764.        
    C0000005  OBJROW     -135.         R0000000  365.        
    C0000006  OBJROW     -119.         R0000000  878.        
    C0000007  OBJROW     -651.         R0000000  45.         
    C0000008  OBJROW     -95.          R0000000  140.        
    C0000009  OBJROW     -844.         R0000000  470.        
    C0000010  OBJROW     -447.         R0000000  165.        
    C0000011  OBJROW     -916.         R0000000  404.        
    C0000012  OBJROW     -887.         R0000000  183.        
    C0000013  OBJROW     -308.         R0000000  172.        
    C0000014  OBJROW     -410.         R0000000  876.        
    C0000015  OBJROW     -915.         R0000000  373.        
    C0000016  OBJROW     -248.         R0000000  414.        
    C0000017  OBJROW     -702.         R0000000  175.        
    C0000018  OBJROW     -974.         R0000000  577.        
RHS
    RHS       R0000000  13852.      
BOUNDS
 BV BOUND     C0000000  1.          
 BV BOUND     C0000001  1.          
 BV BOUND     C0000002  1.          
 BV BOUND     C0000003  1.          
 BV BOUND     C0000004  1.          
 BV BOUND     C0000005  1.          
 BV BOUND     C0000006  1.          
 BV BOUND     C0000007  1.          
 BV BOUND     C0000008  1.          
 BV BOUND     C0000009  1.          
 BV BOUND     C0000010  1.          
 BV BOUND     C0000011  1.          
 BV BOUND     C0000012  1.          
 BV BOUND     C0000013  1.          
 BV BOUND     C0000014  1.          
 BV BOUND     C0000015  1.          
 BV BOUND     C0000016  1.          
 BV BOUND     C0000017  1.          
 BV BOUND     C0000018  1.          
ENDATA
