data/MCDM/NO_CORR/GEN_FROM_60/19_ITEMS_1000_GEN/K5019W16.KNP.txt
N 19
M 20
LC 19
LC 20
LC 21
LC 22
LC 23
LC 24
LC 25
LC 26
LC 27
LC 28
LC 29
LC 30
LC 31
LC 32
LC 33
LC 34
LC 35
LC 36
LC 37
LR 1
LR 2
LR 3
LR 4
LR 5
LR 6
LR 7
LR 8
LR 9
LR 10
LR 11
LR 12
LR 13
LR 14
LR 15
LR 16
LR 17
LR 18
LR 19
LR 20
LO -859
LO -312
LO -435
LO -339
LO -91
LO -135
LO -119
LO -651
LO -95
LO -844
LO -447
LO -916
LO -887
LO -308
LO -410
LO -915
LO -248
LO -702
LO -974
OS 1
IC 683
IC 198
IC 877
IC 661
IC 739
IC 222
IC 215
IC 163
IC 895
IC 618
IC 257
IC 600
IC 477
IC 502
IC 166
IC 599
IC 492
IC 214
IC 474
IB 4526
